(declare-fun bvlambda_2_ ()Bool         )
(declare-fun bvlambda_8_ ()Bool         )
(declare-fun bvlambda_25_ ()Bool         )
(declare-fun bvlambda_27_ ()Bool         )
(declare-fun bvlambda_28_ ()Bool         )
(declare-fun bvlambda_29_ ()Bool         )
(declare-fun bvlambda_30_ () (_ BitVec 5))
(declare-fun bvlambda_31_ ()Bool         )
(declare-fun a111 () (Array (_ BitVec 1) (_ BitVec 4)))
(assert
(let (($e1 false    ))
(let (($e9 (_ bv8 4)))
(let (($e19 (_ bv0 6)))
(let (($e20 (_ bv0 3)))
(let (($e25 (_ bv0 12)))
(let (($e35 (_ bv2 4)))
(let (($e50 (_ bv0 11)))
(let (($e76 (_ bv2 2)))
(let (($e112 (concat $e19 bvlambda_25_)))
(let (($e113 (concat $e112 bvlambda_30_)))
(let (($e114 (concat $e113 bvlambda_31_)))
(let (($e115 (concat $e114 bvlambda_27_)))
(let (($e116 (concat $e115 bvlambda_28_)))
(let (($e117 (concat $e116 bvlambda_29_)))
(let (($e118         $e117             ))
(let (($e122               bvlambda_2_ ))
(let (($e123                          $e122       ))
(let (($e128                      (bvnot $e123) ))
(let (($e129        (bvnot $e128)               ))
(let (($e130                  $e129 ))
(let (($e131 (select a111 $e130)))
(let (($e132 (concat $e25 $e131)))
(let (($e133        $e132       ))
(let (($e144        a111                   ))
(let (($e145 (store $e144 $e1        $e9 )))
(let (($e146 (select $e145 bvlambda_8_)))
(let (($e147 (concat $e50 $e146)))
(let (($e148                     $e147 ))
(let (($e149 (concat $e1 $e148)))
(let (($e150      (bvult $e133 $e149)         ))
(let (($e152 (select $e144 true       )))
(let (($e160                          $e152 ))
(let (($e161              $e160          ))
(let (($e162              $e161 ))
(let (($e164                          $e162 ))
(let (($e165 ((_ extract 1 0) $e164)))
(let (($e166      (bvult $e76 $e165)         ))
(let (($e168                      $e166 ))
(let (($e169 (bvand $e168 $e150)))
(let (($e170               $e169                ))
(let (($e179                             $e170  ))
(let (($e184                       $e179          ))
(let (($e185                           $e35      ))
(let (($e186 (store $e144 $e1 $e185)))
(let (($e187 (select $e186 $e130)))
(let (($e189                      $e187 ))
(let (($e191                    $e189       ))
(let (($e192 (   extract        $e191)))
(let (($e199              $e192 ))
(let (($e205               $e199                ))
(let (($e207 (concat        $e25  $e205)))
(let (($e208                    $e207       ))
(let (($e210              $e208 ))
(let (($e211 (concat $e20 $e210)))
(let (($e214                          $e211 ))
(let (($e215      (= $e214 $e118)         ))
             (bvand (bvnot $e215)        $e184 )
                                                                                                                                                                                                                                                                                                                                                                                                                                                                                                                                                                                                                                                                                                                                                                                                                                                                                                                                                           ))  )) )) )     )      )) ) ))))    )        ))) ))) )))       ) )))))))          ))))))    ))   )))))))   )                         )              )         )    ))         )       ))
